proyfinal/src/viki/013/andrea/andrea-localstore/experimentInOfficeAgust.take6/worker_1/93df2e9d-31b8-4a9a-a633-e5608419ed61.als.cnf.out
Reading from standard input... Use '--help' for help.
============================[ Problem Statistics ]=============================
|                                                                             |
|  Number of variables:         87638                                         |
|  Number of clauses:          161767                                         |
|  Parse time:                   0.04 s                                       |
|                                                                             |
============================[ Search Statistics ]==============================
| Conflicts |          ORIGINAL         |          LEARNT          | Progress |
|           |    Vars  Clauses Literals |    Limit  Clauses Lit/Cl |          |
===============================================================================
|       100 |   63056   107660   269239 |    39475      100     46 | 28.049 % |
|       250 |   63038   107586   269068 |    43422      249     65 | 28.070 % |
|       475 |   63038   107586   269068 |    47765      474    124 | 28.070 % |
|       812 |   63038   107586   269068 |    52541      811    129 | 28.070 % |
|      1318 |   44017    51110   130272 |    57795     1292    104 | 49.774 % |
|      2077 |   44017    51110   130272 |    63575     2051     75 | 49.774 % |
|      3216 |   44016    51094   130239 |    69932     3185     59 | 49.775 % |
===============================================================================
restarts              : 20
conflicts             : 3809           (9109 /sec)
decisions             : 13007          (0.00 % random) (31107 /sec)
propagations          : 5185058        (12400292 /sec)
conflict literals     : 200736         (25.76 % deleted)
Memory used           : 24.86 MB
CPU time              : 0.41814 s

UNSATISFIABLE
